(set-info :smt-lib-version 2.6)
(set-logic QF_UFBV)
(set-info :source |
Generated by: Certora
Generated on: 2024-01-16
Generator: The Certora Prover
Application: Web3 security
|)
(set-info :license "https://creativecommons.org/licenses/by/4.0/")
(set-info :category "industrial")
(set-info :status unknown)
(declare-fun x91 () (_ BitVec 256))
(declare-fun x46 () (_ BitVec 256))
(declare-fun x274 () (_ BitVec 256))
(declare-fun x206 () (_ BitVec 256))
(declare-fun x291 () (_ BitVec 256))
(declare-fun x114 () (_ BitVec 256))
(declare-fun x369 () Bool)
(declare-fun x373 () (_ BitVec 256))
(declare-fun x254 () (_ BitVec 256))
(declare-fun x83 () (_ BitVec 256))
(declare-fun x209 () (_ BitVec 256))
(declare-fun x404 () (_ BitVec 256))
(declare-fun x87 () (_ BitVec 256))
(declare-fun x402 () (_ BitVec 256))
(declare-fun x365 ((_ BitVec 256)) (_ BitVec 256))
(declare-fun x376 () (_ BitVec 256))
(declare-fun x335 () (_ BitVec 256))
(declare-fun x135 () Bool)
(declare-fun x378 () (_ BitVec 256))
(declare-fun x141 () (_ BitVec 256))
(declare-fun x216 () (_ BitVec 256))
(declare-fun x362 () Bool)
(declare-fun x248 ((_ BitVec 256) (_ BitVec 256)) (_ BitVec 256))
(declare-fun x342 () Bool)
(declare-fun x350 () Bool)
(declare-fun x293 () Bool)
(declare-fun x23 () (_ BitVec 256))
(declare-fun x354 () (_ BitVec 256))
(declare-fun x125 ((_ BitVec 256)) (_ BitVec 256))
(declare-fun x27 () (_ BitVec 256))
(declare-fun x338 () (_ BitVec 256))
(declare-fun x108 () (_ BitVec 256))
(declare-fun x204 () (_ BitVec 256))
(declare-fun x41 ((_ BitVec 256)) (_ BitVec 256))
(declare-fun x202 () (_ BitVec 256))
(declare-fun x197 () (_ BitVec 256))
(declare-fun x267 () (_ BitVec 256))
(declare-fun x390 () (_ BitVec 256))
(declare-fun x298 () Bool)
(declare-fun x340 () (_ BitVec 256))
(declare-fun x20 () (_ BitVec 256))
(declare-fun x377 () (_ BitVec 256))
(declare-fun x16 () Bool)
(declare-fun x239 () Bool)
(declare-fun x57 () Bool)
(declare-fun x69 () (_ BitVec 256))
(declare-fun x253 () (_ BitVec 256))
(declare-fun x121 () Bool)
(declare-fun x88 () (_ BitVec 256))
(declare-fun x66 () Bool)
(declare-fun x374 ((_ BitVec 256)) (_ BitVec 256))
(declare-fun x32 () (_ BitVec 256))
(declare-fun x145 ((_ BitVec 256)) (_ BitVec 256))
(declare-fun x77 () Bool)
(declare-fun x99 () Bool)
(declare-fun x193 () (_ BitVec 256))
(declare-fun x22 () Bool)
(declare-fun x230 () (_ BitVec 256))
(declare-fun x4 () Bool)
(declare-fun x95 () (_ BitVec 256))
(declare-fun x105 () (_ BitVec 256))
(declare-fun x26 () (_ BitVec 256))
(declare-fun x168 () Bool)
(declare-fun x201 () (_ BitVec 256))
(declare-fun x14 () Bool)
(declare-fun x341 () Bool)
(declare-fun x149 () (_ BitVec 256))
(declare-fun x195 () Bool)
(declare-fun x173 () (_ BitVec 256))
(declare-fun x271 () Bool)
(declare-fun x287 () (_ BitVec 256))
(declare-fun x321 () (_ BitVec 256))
(declare-fun x176 () (_ BitVec 256))
(declare-fun x171 () Bool)
(declare-fun x137 () (_ BitVec 256))
(declare-fun x234 () Bool)
(declare-fun x281 () Bool)
(declare-fun x399 () (_ BitVec 256))
(declare-fun x33 () Bool)
(declare-fun x116 () (_ BitVec 256))
(declare-fun x194 () (_ BitVec 256))
(declare-fun x157 () (_ BitVec 256))
(declare-fun x191 () (_ BitVec 256))
(declare-fun x192 () Bool)
(declare-fun x147 () Bool)
(declare-fun x409 () (_ BitVec 256))
(declare-fun x360 () Bool)
(declare-fun x292 ((_ BitVec 256)) (_ BitVec 256))
(declare-fun x307 () Bool)
(declare-fun x250 () (_ BitVec 256))
(declare-fun x150 () Bool)
(declare-fun x349 () Bool)
(declare-fun x45 () Bool)
(declare-fun x11 () (_ BitVec 256))
(declare-fun x212 () (_ BitVec 256))
(declare-fun x243 ((_ BitVec 256)) (_ BitVec 256))
(declare-fun x256 () (_ BitVec 256))
(declare-fun x96 () (_ BitVec 256))
(declare-fun x169 () (_ BitVec 256))
(declare-fun x178 ((_ BitVec 256) (_ BitVec 256)) (_ BitVec 256))
(declare-fun x60 () Bool)
(declare-fun x47 () (_ BitVec 256))
(declare-fun x345 () (_ BitVec 256))
(declare-fun x227 () (_ BitVec 256))
(declare-fun x231 () (_ BitVec 256))
(declare-fun x34 () (_ BitVec 256))
(declare-fun x269 () (_ BitVec 256))
(declare-fun x260 () (_ BitVec 256))
(declare-fun x199 () (_ BitVec 256))
(declare-fun x103 () (_ BitVec 256))
(declare-fun x372 () (_ BitVec 256))
(declare-fun x73 () Bool)
(declare-fun x93 () (_ BitVec 256))
(declare-fun x5 () (_ BitVec 256))
(declare-fun x92 () (_ BitVec 256))
(declare-fun x130 () (_ BitVec 256))
(declare-fun x261 () Bool)
(declare-fun x408 () (_ BitVec 256))
(declare-fun x198 ((_ BitVec 256) (_ BitVec 256)) (_ BitVec 256))
(declare-fun x122 () (_ BitVec 256))
(declare-fun x247 ((_ BitVec 256)) (_ BitVec 256))
(declare-fun x159 () (_ BitVec 256))
(declare-fun x186 ((_ BitVec 256) (_ BitVec 256)) (_ BitVec 256))
(declare-fun x107 () (_ BitVec 256))
(declare-fun x183 () (_ BitVec 256))
(declare-fun x163 () Bool)
(declare-fun x187 () (_ BitVec 256))
(declare-fun x355 () Bool)
(declare-fun x385 () (_ BitVec 256))
(declare-fun x10 () Bool)
(declare-fun x343 () (_ BitVec 256))
(declare-fun x29 () (_ BitVec 256))
(declare-fun x174 () Bool)
(declare-fun x387 ((_ BitVec 256)) (_ BitVec 256))
(declare-fun x246 () Bool)
(declare-fun x224 () (_ BitVec 256))
(declare-fun x165 () Bool)
(declare-fun x2 () Bool)
(declare-fun x384 () Bool)
(declare-fun x264 () (_ BitVec 256))
(declare-fun x328 () Bool)
(declare-fun x129 () (_ BitVec 256))
(declare-fun x112 () (_ BitVec 256))
(declare-fun x381 () (_ BitVec 256))
(declare-fun x113 () (_ BitVec 256))
(declare-fun x403 () (_ BitVec 256))
(declare-fun x63 () (_ BitVec 256))
(declare-fun x297 () (_ BitVec 256))
(declare-fun x48 () (_ BitVec 256))
(declare-fun x40 () Bool)
(declare-fun x189 ((_ BitVec 256)) Bool)
(declare-fun x166 ((_ BitVec 256)) (_ BitVec 256))
(declare-fun x252 () (_ BitVec 256))
(declare-fun x300 () (_ BitVec 256))
(declare-fun x109 () (_ BitVec 256))
(declare-fun x190 () Bool)
(declare-fun x301 () Bool)
(declare-fun x154 () (_ BitVec 256))
(declare-fun x380 () (_ BitVec 256))
(declare-fun x352 () (_ BitVec 256))
(declare-fun x339 () (_ BitVec 256))
(declare-fun x120 () (_ BitVec 256))
(declare-fun x405 () Bool)
(declare-fun x133 () (_ BitVec 256))
(declare-fun x180 () (_ BitVec 256))
(declare-fun x295 () Bool)
(declare-fun x262 () Bool)
(declare-fun x232 () (_ BitVec 256))
(declare-fun x158 () Bool)
(declare-fun x72 () (_ BitVec 256))
(declare-fun x273 () Bool)
(declare-fun x132 () Bool)
(declare-fun x6 () (_ BitVec 256))
(declare-fun x115 ((_ BitVec 256)) (_ BitVec 256))
(declare-fun x82 () Bool)
(declare-fun x50 () (_ BitVec 256))
(declare-fun x294 ((_ BitVec 256)) (_ BitVec 256))
(declare-fun x79 () (_ BitVec 256))
(declare-fun x229 () Bool)
(declare-fun x356 () (_ BitVec 256))
(declare-fun x375 () (_ BitVec 256))
(declare-fun x290 () (_ BitVec 256))
(declare-fun x188 () (_ BitVec 256))
(declare-fun x357 () (_ BitVec 256))
(declare-fun x62 () (_ BitVec 256))
(declare-fun x398 () (_ BitVec 256))
(declare-fun x265 () (_ BitVec 256))
(declare-fun x182 () Bool)
(declare-fun x139 () (_ BitVec 256))
(declare-fun x303 () Bool)
(declare-fun x325 () (_ BitVec 256))
(declare-fun x19 () (_ BitVec 256))
(declare-fun x313 () (_ BitVec 256))
(declare-fun x106 () (_ BitVec 256))
(declare-fun x277 () Bool)
(declare-fun x138 () Bool)
(declare-fun x382 () (_ BitVec 256))
(declare-fun x24 ((_ BitVec 256)) (_ BitVec 256))
(declare-fun x185 () (_ BitVec 256))
(declare-fun x388 ((_ BitVec 256) (_ BitVec 256) (_ BitVec 256)) (_ BitVec 256))
(declare-fun x289 () (_ BitVec 256))
(declare-fun x406 () (_ BitVec 256))
(declare-fun x220 ((_ BitVec 256)) (_ BitVec 256))
(declare-fun x13 () (_ BitVec 256))
(declare-fun x394 () (_ BitVec 256))
(declare-fun x44 () (_ BitVec 256))
(declare-fun x184 () Bool)
(declare-fun x383 () Bool)
(declare-fun x282 () (_ BitVec 256))
(declare-fun x233 () (_ BitVec 256))
(declare-fun x214 () (_ BitVec 256))
(declare-fun x367 () (_ BitVec 256))
(declare-fun x308 () (_ BitVec 256))
(declare-fun x9 () (_ BitVec 256))
(declare-fun x156 () Bool)
(declare-fun x392 () (_ BitVec 256))
(declare-fun x134 () (_ BitVec 256))
(declare-fun x124 () (_ BitVec 256))
(declare-fun x225 () (_ BitVec 256))
(declare-fun x7 () (_ BitVec 256))
(declare-fun x140 () (_ BitVec 256))
(declare-fun x379 ((_ BitVec 256)) (_ BitVec 256))
(declare-fun x286 ((_ BitVec 256)) (_ BitVec 256))
(declare-fun x152 () (_ BitVec 256))
(declare-fun x315 () (_ BitVec 256))
(declare-fun x276 () (_ BitVec 256))
(declare-fun x17 () (_ BitVec 256))
(declare-fun x162 () (_ BitVec 256))
(declare-fun x228 ((_ BitVec 256)) (_ BitVec 256))
(declare-fun x136 ((_ BitVec 256)) (_ BitVec 256))
(declare-fun x89 () Bool)
(declare-fun x244 () (_ BitVec 256))
(declare-fun x401 () Bool)
(declare-fun x272 () (_ BitVec 256))
(declare-fun x118 () (_ BitVec 256))
(declare-fun x371 () (_ BitVec 256))
(declare-fun x353 () (_ BitVec 256))
(declare-fun x58 () Bool)
(declare-fun x1 () Bool)
(declare-fun x329 () (_ BitVec 256))
(declare-fun x85 () (_ BitVec 256))
(declare-fun x148 () (_ BitVec 256))
(declare-fun x396 () (_ BitVec 256))
(declare-fun x302 () (_ BitVec 256))
(declare-fun x249 () (_ BitVec 256))
(declare-fun x38 () (_ BitVec 256))
(declare-fun x127 () (_ BitVec 256))
(declare-fun x36 () (_ BitVec 256))
(declare-fun x144 () (_ BitVec 256))
(declare-fun x318 () (_ BitVec 256))
(declare-fun x309 () (_ BitVec 256))
(declare-fun x310 () (_ BitVec 256))
(declare-fun x35 () (_ BitVec 256))
(declare-fun x351 () (_ BitVec 256))
(declare-fun x59 () (_ BitVec 256))
(declare-fun x361 () (_ BitVec 256))
(declare-fun x222 () (_ BitVec 256))
(declare-fun x263 () (_ BitVec 256))
(declare-fun x200 () (_ BitVec 256))
(declare-fun x101 () Bool)
(declare-fun x56 () Bool)
(declare-fun x407 () Bool)
(declare-fun x211 () Bool)
(declare-fun x312 () (_ BitVec 256))
(declare-fun x217 () (_ BitVec 256))
(declare-fun x370 () (_ BitVec 256))
(declare-fun x100 () (_ BitVec 256))
(declare-fun x358 () (_ BitVec 256))
(declare-fun x397 () (_ BitVec 256))
(declare-fun x255 () (_ BitVec 256))
(declare-fun x296 () (_ BitVec 256))
(declare-fun x344 () (_ BitVec 256))
(declare-fun x175 () (_ BitVec 256))
(declare-fun x236 () (_ BitVec 256))
(declare-fun x97 () (_ BitVec 256))
(declare-fun x386 () (_ BitVec 256))
(declare-fun x316 () Bool)
(declare-fun x3 () (_ BitVec 256))
(declare-fun x111 () Bool)
(declare-fun x326 () (_ BitVec 256))
(declare-fun x18 () Bool)
(declare-fun x337 () Bool)
(declare-fun x142 () (_ BitVec 256))
(declare-fun x80 () (_ BitVec 256))
(declare-fun x283 () (_ BitVec 256))
(declare-fun x237 () (_ BitVec 256))
(declare-fun x75 ((_ BitVec 256)) (_ BitVec 256))
(declare-fun x31 () Bool)
(declare-fun x94 () (_ BitVec 256))
(declare-fun x54 () (_ BitVec 256))
(declare-fun x21 () Bool)
(declare-fun x61 ((_ BitVec 256)) (_ BitVec 256))
(declare-fun x258 () (_ BitVec 256))
(declare-fun x172 () (_ BitVec 256))
(declare-fun x288 () Bool)
(declare-fun x15 () (_ BitVec 256))
(declare-fun x238 () (_ BitVec 256))
(declare-fun x270 () Bool)
(declare-fun x400 () (_ BitVec 256))
(declare-fun x334 () Bool)
(declare-fun x306 () (_ BitVec 256))
(declare-fun x25 () (_ BitVec 256))
(declare-fun x284 () (_ BitVec 256))
(declare-fun x74 () (_ BitVec 256))
(declare-fun x324 () Bool)
(declare-fun x43 () (_ BitVec 256))
(declare-fun x65 () (_ BitVec 256))
(declare-fun x128 () (_ BitVec 256))
(declare-fun x363 () (_ BitVec 256))
(define-fun x84 ((x55 (_ BitVec 256)) (x223 (_ BitVec 256))) Bool (= x55 (bvudiv (bvmul x223 x55) x223)))
(define-fun x177 ((x55 (_ BitVec 256)) (x223 (_ BitVec 256))) Bool (= x55 (bvsdiv (bvmul x55 x223) x223)))
(define-fun x151 ((x55 (_ BitVec 256)) (x223 (_ BitVec 256))) Bool (= x55 (bvsdiv (bvmul x223 x55) x223)))
(define-fun x213 ((x123 (_ BitVec 256))) (_ BitVec 256) (_ bv0 256))
(define-fun x28 ((x123 (_ BitVec 256))) (_ BitVec 256) (_ bv0 256))
(define-fun x311 ((x123 (_ BitVec 256))) (_ BitVec 256) (_ bv0 256))
(define-fun x196 ((x123 (_ BitVec 256))) (_ BitVec 256) (_ bv0 256))
(define-fun x393 ((x123 (_ BitVec 256))) (_ BitVec 256) (_ bv0 256))
(define-fun x53 ((x123 (_ BitVec 256))) (_ BitVec 256) (_ bv0 256))
(define-fun x395 ((x123 (_ BitVec 256))) (_ BitVec 256) (_ bv0 256))
(define-fun x131 ((x123 (_ BitVec 256))) (_ BitVec 256) (_ bv0 256))
(define-fun x242 ((x123 (_ BitVec 256))) (_ BitVec 256) (_ bv0 256))
(define-fun x304 ((x123 (_ BitVec 256))) (_ BitVec 256) (_ bv0 256))
(define-fun x208 ((x123 (_ BitVec 256))) (_ BitVec 256) (_ bv0 256))
(define-fun x143 ((x123 (_ BitVec 256))) (_ BitVec 256) (_ bv0 256))
(define-fun x117 ((x123 (_ BitVec 256))) (_ BitVec 256) (_ bv0 256))
(define-fun x251 ((x123 (_ BitVec 256))) (_ BitVec 256) (_ bv0 256))
(define-fun x323 ((x123 (_ BitVec 256))) (_ BitVec 256) (_ bv0 256))
(define-fun x322 ((x123 (_ BitVec 256))) (_ BitVec 256) (_ bv0 256))
(define-fun x64 ((x123 (_ BitVec 256))) (_ BitVec 256) (_ bv0 256))
(define-fun x333 ((x123 (_ BitVec 256))) (_ BitVec 256) (_ bv0 256))
(define-fun x332 ((x123 (_ BitVec 256))) (_ BitVec 256) (_ bv0 256))
(define-fun x336 ((x123 (_ BitVec 256))) (_ BitVec 256) (_ bv0 256))
(define-fun x366 ((x123 (_ BitVec 256))) (_ BitVec 256) (_ bv0 256))
(define-fun x319 ((x123 (_ BitVec 256))) (_ BitVec 256) (_ bv0 256))
(define-fun x179 ((x123 (_ BitVec 256))) (_ BitVec 256) (_ bv0 256))
(define-fun x181 ((x123 (_ BitVec 256))) (_ BitVec 256) (_ bv0 256))
(define-fun x317 ((x123 (_ BitVec 256))) (_ BitVec 256) (_ bv0 256))
(define-fun x219 ((x123 (_ BitVec 256))) (_ BitVec 256) (ite (= x123 x255) x148 (x374 x123)))
(define-fun x51 ((x123 (_ BitVec 256))) (_ BitVec 256) (ite (= x123 x233) x217 (x219 x123)))
(define-fun x364 ((x123 (_ BitVec 256))) (_ BitVec 256) (ite (= x123 (_ bv512 256)) (_ bv50942633119752846454219349998365661925608737367104304655302372697894809501696 256) (x213 x123)))
(define-fun x280 ((x123 (_ BitVec 256))) (_ BitVec 256) (ite (= x123 (_ bv516 256)) x233 (x364 x123)))
(define-fun x241 ((x123 (_ BitVec 256))) (_ BitVec 256) (ite (= x123 (_ bv0 256)) x65 (x166 x123)))
(define-fun x70 ((x123 (_ BitVec 256))) (_ BitVec 256) (ite (= (_ bv512 256) x123) x65 (x280 x123)))
(define-fun x330 ((x123 (_ BitVec 256))) (_ BitVec 256) (ite (= x123 (_ bv512 256)) (_ bv9926590759366731133184464140911154174177107315504433282334229972011911741440 256) (x70 x123)))
(define-fun x314 ((x123 (_ BitVec 256))) (_ BitVec 256) (ite (= (_ bv516 256) x123) x264 (x330 x123)))
(define-fun x331 ((x123 (_ BitVec 256))) (_ BitVec 256) (ite (= x123 (_ bv548 256)) x238 (x314 x123)))
(define-fun x320 ((x123 (_ BitVec 256))) (_ BitVec 256) (ite (= x123 (_ bv580 256)) x250 (x331 x123)))
(define-fun x221 ((x123 (_ BitVec 256))) (_ BitVec 256) (ite (and (bvult x123 (_ bv544 256)) (bvuge x123 (_ bv512 256))) (x75 (bvadd x123 (bvneg (_ bv512 256)))) (x320 x123)))
(define-fun x90 ((x123 (_ BitVec 256))) (_ BitVec 256) (ite x384 (x221 x123) (x320 x123)))
(define-fun x39 ((x123 (_ BitVec 256))) (_ BitVec 256) (ite (= (_ bv768 256) x123) x173 (x90 x123)))
(define-fun x78 ((x123 (_ BitVec 256))) (_ BitVec 256) (ite (= x123 (_ bv800 256)) x408 (x39 x123)))
(define-fun x81 ((x123 (_ BitVec 256))) (_ BitVec 256) (ite (= (_ bv832 256) x123) x249 (x78 x123)))
(define-fun x49 ((x123 (_ BitVec 256))) (_ BitVec 256) (ite (= x123 (_ bv864 256)) x264 (x81 x123)))
(define-fun x167 ((x123 (_ BitVec 256))) (_ BitVec 256) (ite (= x123 (_ bv896 256)) x32 (x49 x123)))
(define-fun x203 ((x123 (_ BitVec 256))) (_ BitVec 256) (ite (= (_ bv928 256) x123) x269 (x167 x123)))
(define-fun x126 ((x123 (_ BitVec 256))) (_ BitVec 256) (ite x10 (x213 x123) (x203 x123)))
(define-fun x299 ((x123 (_ BitVec 256))) (_ BitVec 256) (ite (= x123 x50) (_ bv50942633119752846454219349998365661925608737367104304655302372697894809501696 256) (x126 x123)))
(define-fun x104 ((x123 (_ BitVec 256))) (_ BitVec 256) (ite (= x63 x123) x233 (x299 x123)))
(define-fun x42 ((x123 (_ BitVec 256))) (_ BitVec 256) (ite (= x123 (_ bv0 256)) x267 (x387 x123)))
(define-fun x279 ((x123 (_ BitVec 256))) (_ BitVec 256) (ite (= x123 x50) x267 (x104 x123)))
(define-fun x71 ((x123 (_ BitVec 256))) (_ BitVec 256) (ite (= x123 x373) (_ bv79296723274733526634128096404112061805888054070845613866591879340676341563392 256) (x279 x123)))
(define-fun x102 ((x123 (_ BitVec 256))) (_ BitVec 256) (ite (= x100 x123) x233 (x71 x123)))
(define-fun x359 ((x123 (_ BitVec 256))) (_ BitVec 256) (ite (= x200 x123) x191 (x102 x123)))
(define-fun x30 ((x123 (_ BitVec 256))) (_ BitVec 256) (ite (= x123 x29) x400 (x359 x123)))
(define-fun x215 ((x123 (_ BitVec 256))) (_ BitVec 256) (ite (and (bvult x123 x373) (bvule x373 x123)) (x115 (bvadd x123 (bvneg x373))) (x30 x123)))
(define-fun x347 ((x123 (_ BitVec 256))) (_ BitVec 256) (ite (= x94 x123) x363 (x215 x123)))
(define-fun x207 ((x123 (_ BitVec 256))) (_ BitVec 256) (ite x82 (x215 x123) (x347 x123)))
(define-fun x86 ((x123 (_ BitVec 256))) (_ BitVec 256) (ite (= x254 x123) x400 (x207 x123)))
(define-fun x391 ((x123 (_ BitVec 256))) (_ BitVec 256) (ite (= x123 x254) (_ bv91893037931264823478789666111544828899574148870504437229209701178949438013440 256) (x86 x123)))
(define-fun x37 ((x123 (_ BitVec 256))) (_ BitVec 256) (ite (= x252 x123) x233 (x391 x123)))
(define-fun x278 ((x123 (_ BitVec 256))) (_ BitVec 256) (ite (= x290 x123) x284 (x37 x123)))
(define-fun x67 ((x123 (_ BitVec 256))) (_ BitVec 256) (ite (= x123 x216) x402 (x278 x123)))
(define-fun x160 ((x123 (_ BitVec 256))) (_ BitVec 256) (ite (= x48 x123) x191 (x67 x123)))
(define-fun x389 ((x123 (_ BitVec 256))) (_ BitVec 256) (ite (and (bvule x254 x123) (bvugt (bvadd (_ bv32 256) x254) x123)) (x365 (bvadd x123 (bvneg x254))) (x160 x123)))
(define-fun x155 ((x123 (_ BitVec 256))) (_ BitVec 256) (ite (= x204 x123) x175 (x143 x123)))
(define-fun x346 ((x123 (_ BitVec 256))) (_ BitVec 256) (ite (= x123 x36) x402 (x155 x123)))
(define-fun x52 ((x123 (_ BitVec 256))) (_ BitVec 256) (ite (= x254 x123) x114 (x117 x123)))
(define-fun x153 ((x123 (_ BitVec 256))) (_ BitVec 256) (ite (= x123 x96) x403 (x346 x123)))
(define-fun x218 ((x340 (_ BitVec 256))) Bool (or (not (and (bvuge (_ bv115792089237316195423570985008687907853269984665640564039457584007913129639935 256) x340) (bvuge x340 (_ bv0 256)))) (not (and (bvult x340 x106) (bvuge x340 (_ bv0 256)))) (= (x220 (x228 x340)) (bvadd x340 (_ bv1 256)))))
(define-fun x170 ((x162 (_ BitVec 256))) Bool (or (and (and (bvule (_ bv1 256) (x220 x162)) (= x162 (x228 (bvadd (bvneg (_ bv1 256)) (x220 x162))))) (bvule (x220 x162) x106)) (= (x220 x162) (_ bv0 256)) (not (and (bvuge (_ bv115792089237316195423570985008687907853269984665640564039457584007913129639935 256) x162) (bvuge x162 (_ bv0 256))))))
(define-fun x12 ((x127 (_ BitVec 256)) (x406 (_ BitVec 256))) Bool (or (not (and (bvuge x127 (_ bv0 256)) (bvule x127 (_ bv1461501637330902918203684832716283019655932542975 256)))) (or (not (and (bvule x406 (_ bv115792089237316195423570985008687907853269984665640564039457584007913129639935 256)) (bvuge x406 (_ bv0 256)))) (not (and (bvuge x406 (_ bv0 256)) (bvult x406 (x294 x127)))) (= (bvadd (_ bv1 256) x406) (x198 x127 (x178 x127 x406))))))
(define-fun x245 ((x315 (_ BitVec 256)) (x300 (_ BitVec 256))) Bool (or (not (and (bvule (_ bv0 256) x315) (bvule x315 (_ bv1461501637330902918203684832716283019655932542975 256)))) (or (not (and (bvuge (_ bv115792089237316195423570985008687907853269984665640564039457584007913129639935 256) x300) (bvule (_ bv0 256) x300))) (= (_ bv0 256) (x198 x315 x300)) (and (and (= (x178 x315 (bvadd (x198 x315 x300) (bvneg (_ bv1 256)))) x300) (bvule (_ bv1 256) (x198 x315 x300))) (bvuge (x294 x315) (x198 x315 x300))))))
(define-fun x119 ((x335 (_ BitVec 256)) (x404 (_ BitVec 256))) Bool (or (or (not (and (bvule (_ bv0 256) x404) (bvuge (_ bv115792089237316195423570985008687907853269984665640564039457584007913129639935 256) x404))) (not (and (bvult x404 (x247 x335)) (bvuge x404 (_ bv0 256)))) (= (bvadd (_ bv1 256) x404) (x248 x335 (x186 x335 x404)))) (not (and (bvuge x335 (_ bv0 256)) (bvuge (_ bv1461501637330902918203684832716283019655932542975 256) x335)))))
(define-fun x257 ((x392 (_ BitVec 256)) (x214 (_ BitVec 256))) Bool (or (not (and (bvuge (_ bv1461501637330902918203684832716283019655932542975 256) x392) (bvuge x392 (_ bv0 256)))) (or (= (x248 x392 x214) (_ bv0 256)) (and (and (= x214 (x186 x392 (bvadd (bvneg (_ bv1 256)) (x248 x392 x214)))) (bvuge (x248 x392 x214) (_ bv1 256))) (bvuge (x247 x392) (x248 x392 x214))) (not (and (bvuge x214 (_ bv0 256)) (bvuge (_ bv115792089237316195423570985008687907853269984665640564039457584007913129639935 256) x214))))))
(define-fun x205 ((x222 (_ BitVec 256)) (x112 (_ BitVec 256))) Bool (or (not (and (bvuge (_ bv1461501637330902918203684832716283019655932542975 256) x222) (bvule (_ bv0 256) x222))) (or (not (or (not (= (x198 x222 x112) (_ bv0 256))) (not (= (_ bv0 256) (x248 x222 x112))))) (not (= (x220 x112) (_ bv0 256))) (not (and (bvule (_ bv0 256) x112) (bvule x112 (_ bv115792089237316195423570985008687907853269984665640564039457584007913129639935 256)))))))
(define-fun x110 ((x399 (_ BitVec 256))) Bool (or (bvult (x294 x399) (_ bv340282366920938463463374607431768211455 256)) (not (and (bvule x399 (_ bv1461501637330902918203684832716283019655932542975 256)) (bvuge x399 (_ bv0 256))))))
(define-fun x235 ((x5 (_ BitVec 256))) Bool (or (not (and (bvuge (_ bv1461501637330902918203684832716283019655932542975 256) x5) (bvule (_ bv0 256) x5))) (bvugt (_ bv340282366920938463463374607431768211455 256) (x247 x5))))
(define-fun x76 () Bool true)
(define-fun x146 () Bool x76)
(define-fun x266 () Bool true)
(define-fun x240 () Bool x266)
(define-fun x275 () Bool true)
(define-fun x164 () Bool x275)
(define-fun x210 () Bool true)
(define-fun x161 () Bool x210)
(define-fun x98 () Bool true)
(define-fun x8 () Bool x98)
(define-fun x226 () Bool true)
(define-fun x285 () Bool x226)
(define-fun x368 () Bool true)
(define-fun x327 () Bool true)
(define-fun x348 () Bool (and x327 x368))
(define-fun x259 () Bool true)
(define-fun x68 () Bool x259)
(define-fun x305 () Bool true)
(define-fun x268 () Bool x305)
(assert (not x369))
(assert (= (=> (and (and (bvuge (_ bv1000000000000000 256) x129) (not (bvult x173 x272)) (= x129 (x90 (_ bv512 256))) (bvule (_ bv1 256) x409) (= x258 (_ bv512 256)) (= x328 (= (_ bv0 256) x129)) (= (bvadd (bvneg x272) x173) x326)) (or (and (= (_ bv0 256) x338) x328) (and (and (x84 x129 x326) (= (bvmul x326 x129) x83) (= x338 x83)) (not x328)))) x99) x135))
(assert (= (=> (and (or (and (= x373 x398) x307) (and (not x307) (and (bvule (_ bv1 256) x142) (= x6 (x388 (_ bv64 256) x191 x390)) (not (bvult x142 x400)) (= x398 x94) (= x142 (x243 x6)) (= (bvadd x373 (_ bv64 256)) x94) (= x390 (x388 (_ bv64 256) x191 (_ bv104 256))) (= x363 (bvadd (bvneg x400) x142))))) (and (= true x307) x22 (bvule x103 (_ bv1461501637330902918203684832716283019655932542975 256)) (= x402 (bvudiv x95 (_ bv1000000000000000000 256))) (= x256 (_ bv1000000000000000000 256)) (= (bvadd x386 (_ bv64 256)) x373) (= (bvuge (x145 x233) x313) x261) (= (x51 x233) x313) (x84 x400 x361) (bvule (_ bv1 256) x17) (= (bvmul x400 x361) x95) (bvule x351 (_ bv4294967295 256)) (= x141 (x51 x103)) (= x100 (bvadd x373 (_ bv4 256))) (= x200 (bvadd x100 (_ bv32 256))) x261 (= (bvadd (_ bv64 256) x212) x386) (bvule (_ bv1 256) x381) (= (x61 x103) x17) (= (bvadd x200 (_ bv32 256)) x29) (= (= x141 (x145 x103)) x22) (= x361 (bvudiv x354 x367)))) x147) x246))
(assert (=> (bvuge (_ bv10000 256) x233) (= (x286 x233) (_ bv0 256))))
(assert (x189 (_ bv4294967295 256)))
(assert (= x234 (and (not x307) x303)))
(assert (= (and (not x277) x405) x182))
(assert (= x192 (or x1 x121)))
(assert (= (x388 (_ bv64 256) x191 x390) (x286 (x388 (_ bv64 256) x191 x390))))
(assert (x189 (_ bv91893037931264823478789666111544828899574148870504437229209701178949438013440 256)))
(assert (= x334 (=> (and (or (and (and (= x354 x197) (= x197 (bvmul (_ bv1000000000000000000 256) x308)) (x84 x308 (_ bv1000000000000000000 256))) (not x295)) (and x295 (= (_ bv0 256) x354))) (and (= (_ bv1889567281 256) x263) (bvuge x237 (_ bv1 256)) (not (bvult x206 x357)) (= x308 (bvadd (bvneg x357) x206)) (= x88 x233) (bvule (_ bv1 256) x69) (= (_ bv36 256) x72) (= x233 x284) (= x396 (x388 (_ bv64 256) x233 (_ bv103 256))) (= x212 (bvadd (_ bv64 256) x50)) (not (bvugt x375 (bvadd x375 x85))) (bvuge x367 (_ bv1 256)) (= x237 (x61 x233)) (bvule x284 (_ bv1461501637330902918203684832716283019655932542975 256)) (= x375 (x279 x50)) (= x173 x87) (= x140 (_ bv50942633119752846454219349998365661925608737367104304655302372697894809501696 256)) (= (bvadd x289 (bvneg x50)) x72) (= x63 (bvadd x50 (_ bv4 256))) (= x27 x88) (= x69 (x61 x284)) (bvuge x284 (_ bv1 256)) (= (bvadd x85 x375) x206) (= (= x308 (_ bv0 256)) x295) (= (bvadd (_ bv32 256) x63) x289) (= x105 (_ bv36 256)) (= (x24 x396) x267) (= (_ bv1000000000000000000 256) x199))) x246)))
(assert (= (x286 (_ bv79296723274733526634128096404112061805888054070845613866591879340676341563392 256)) (_ bv0 256)))
(assert (not (x189 (x388 (_ bv64 256) x191 (_ bv104 256)))))
(assert (bvult (_ bv10000 256) (x388 (_ bv64 256) x191 x390)))
(assert (= (or x301 x111) x270))
(assert (= x342 (or x384 x21)))
(assert (= (x286 (_ bv57896044618658097711785492504343953926634992332820282019728792003956564819967 256)) (_ bv0 256)))
(assert (=> (bvule x236 (_ bv10000 256)) (= (x286 x236) (_ bv0 256))))
(assert (= x369 (=> (and (and (bvuge x152 (_ bv1 256)) (bvule x152 (_ bv1461501637330902918203684832716283019655932542975 256)) (bvule x157 (_ bv1461501637330902918203684832716283019655932542975 256)) (bvule x188 (_ bv115792089237316195423570985008687907853269984665640564039457584007913129639935 256)) (bvule x74 (_ bv115792089237316195423570985008687907853269984665640564039457584007913129639935 256)) (not (= x244 x339)) (bvule (_ bv1 256) x193) (not (= x62 x233)) (not (= x244 x193)) (bvule (_ bv1 256) x20) (not (= x339 x236)) (bvuge x296 (_ bv0 256)) (not (= x62 x236)) (bvule (_ bv0 256) x154) (= x164 x156) (= x26 x152) (= x158 (bvult (_ bv0 256) (x61 x62))) (not (= x201 x193)) (bvuge x400 (_ bv1 256)) (bvuge x225 (_ bv1 256)) x16 (bvule (_ bv1 256) x378) (= x240 x383) (bvuge (_ bv115792089237316195423570985008687907853269984665640564039457584007913129639935 256) x154) (bvuge (_ bv1461501637330902918203684832716283019655932542975 256) x339) x262 (bvuge (_ bv115792089237316195423570985008687907853269984665640564039457584007913129639935 256) x296) (not (= x193 x62)) (bvuge x201 (_ bv1 256)) (bvuge (_ bv57896044618658097711785492504343953926634992332820282019728792003956564819967 256) x232) x349 x383 (not (= x201 x152)) (not (= x339 x233)) (= (bvugt (x61 x339) (_ bv0 256)) x355) x355 (bvule (_ bv1 256) x233) (= x161 x229) (not (= x276 x62)) (bvule (_ bv1 256) x26) (bvuge (_ bv1461501637330902918203684832716283019655932542975 256) x244) (not (= x152 x244)) x31 (bvuge x46 (_ bv1 256)) (bvuge (_ bv1461501637330902918203684832716283019655932542975 256) x236) x163 (not (= x276 x244)) (= x152 x287) x229 (= (bvugt (x61 x244) (_ bv0 256)) x174) (not (= x236 x201)) (not (= x193 x152)) (= x46 x62) x158 (bvule x201 (_ bv1461501637330902918203684832716283019655932542975 256)) (bvule x233 (_ bv1461501637330902918203684832716283019655932542975 256)) (not (= x339 x152)) x174 (bvuge x128 (_ bv0 256)) (not (= x276 x236)) (bvule x46 (_ bv1461501637330902918203684832716283019655932542975 256)) (bvule (_ bv1 256) x339) (= x16 (bvugt (x61 x233) (_ bv0 256))) x156 x89 (not (= x233 x201)) (not (= x276 x152)) (bvule (_ bv1 256) x236) (bvuge (_ bv1461501637330902918203684832716283019655932542975 256) x62) (bvule x54 (_ bv1461501637330902918203684832716283019655932542975 256)) (not (= x201 x276)) (not (= x236 x233)) (bvule x376 (_ bv4294967295 256)) (= x225 x193) (= x146 x163) (= x89 x348) (bvule x193 (_ bv1461501637330902918203684832716283019655932542975 256)) (= (bvugt (x61 x276) (_ bv0 256)) x31) (bvuge (_ bv1461501637330902918203684832716283019655932542975 256) x287) (= x73 (bvult (_ bv0 256) (x61 x201))) x298 (= x349 x285) (bvule (_ bv0 256) x376) (not (= x244 x201)) (bvuge x244 (_ bv1 256)) (bvule x26 (_ bv1461501637330902918203684832716283019655932542975 256)) (not (= x193 x339)) (not (= x276 x339)) (not (= x244 x236)) (= x343 x400) (= x298 x8) x73 (not (= x276 x233)) (bvuge x276 (_ bv1 256)) (bvuge x232 (_ bv36 256)) (= x400 (x379 (_ bv4 256))) (bvule (_ bv0 256) x74) (bvule (_ bv0 256) x54) (bvule (_ bv0 256) x157) (bvule x378 (_ bv1461501637330902918203684832716283019655932542975 256)) (= (bvugt (x61 x236) (_ bv0 256)) x341) (not (= x62 x244)) (bvuge x7 (_ bv0 256)) (bvuge x62 (_ bv1 256)) (= (bvugt (x61 x193) (_ bv0 256)) x401) (bvuge x287 (_ bv1 256)) (bvuge (_ bv1461501637330902918203684832716283019655932542975 256) x225) (= (bvugt (x61 x152) (_ bv0 256)) x262) (not (= x236 x152)) (not (= x193 x236)) (bvuge (_ bv115792089237316195423570985008687907853269984665640564039457584007913129639935 256) x128) (not (= x244 x233)) (not (= x152 x62)) (not (= x193 x276)) (not (= x233 x152)) (bvuge (_ bv1461501637330902918203684832716283019655932542975 256) x7) x341 (bvuge x371 (_ bv0 256)) x401 (= x276 x20) (not (= x193 x233)) (bvuge (_ bv1461501637330902918203684832716283019655932542975 256) x20) (not (= x62 x339)) (bvuge (_ bv1461501637330902918203684832716283019655932542975 256) x276) (not (= x201 x339)) (bvuge (_ bv115792089237316195423570985008687907853269984665640564039457584007913129639935 256) x371) (not (= x201 x62)) (bvule (_ bv0 256) x188) (= x329 (_ bv0 256))) (and (and (and (= x343 x202) (= x148 x377) (bvule (_ bv1 256) x370) (= x378 x255) (= x217 x19) (= (x219 x233) x19) (= (x61 x233) x370) (= x148 (x374 x255)) (= x66 (= x173 x272)) (not (= x47 (_ bv2 256))) (= x372 (_ bv3877388257 256))) (= x74 x173)) (= x378 x191))) (and (=> (and (not x66) (and (and (= x138 (bvugt x344 (_ bv0 256))) (= (_ bv1889567281 256) x310) (bvule (_ bv1 256) x284) (bvule (_ bv1 256) x318) (= x124 (_ bv512 256)) (bvuge (_ bv1461501637330902918203684832716283019655932542975 256) x43) (= x227 x233) (= (x24 x35) x65) (bvuge x231 (_ bv1 256)) (bvule (_ bv1 256) x25) (= (x70 (_ bv512 256)) x264) (bvuge (_ bv1461501637330902918203684832716283019655932542975 256) x284) (= x318 (x61 x233)) (= x231 (x61 x284)) (= x394 (_ bv512 256)) (bvule (_ bv32 256) x172) (= (_ bv50942633119752846454219349998365661925608737367104304655302372697894809501696 256) x297) (= x227 x3) (= x35 (x388 (_ bv64 256) x233 (_ bv103 256))) (= (x61 x43) x25) (= x284 x233) (= (_ bv36 256) x224)) (or (and (and (bvuge x172 (_ bv32 256)) (bvuge (_ bv4294967295 256) x172) (= (_ bv1 256) x409)) x138) (and (not x138) (= x409 x344))))) x135) (=> (and (and (= x250 x357) (= x50 (_ bv128 256)) (= x272 x87) (= x85 x238)) x66) x334)))))
(assert (= x211 (and x270 (not x150))))
(assert (= (_ bv0 256) (x286 (_ bv1461501637330902918203684832716283019655932542975 256))))
(assert (=> (bvuge (_ bv10000 256) x201) (= (x286 x201) (_ bv0 256))))
(assert (= (or x45 x101) x303))
(assert (= x191 (x136 (x388 (_ bv64 256) x191 x390))))
(assert (= x147 (=> (and (not (bvugt x400 x367)) (= (bvand (_ bv1461501637330902918203684832716283019655932542975 256) x93) x175) (= x130 (_ bv0 256)) x165 (bvule (_ bv32 256) x358) (not (bvult x291 x400)) (= (bvadd x216 (_ bv32 256)) x48) (bvule (_ bv1 256) x144) (bvuge x118 (_ bv128 256)) (= x291 (x24 x113)) (= (bvugt (_ bv32 256) (bvadd (bvneg (_ bv128 256)) x118)) x40) (bvule x284 (_ bv1461501637330902918203684832716283019655932542975 256)) (= (bvadd (bvneg x254) x265) x109) (= x290 (bvadd (_ bv32 256) x252)) (= true x56) (= (x145 x103) x183) (= x265 (bvadd (_ bv32 256) x36)) (= (bvand (_ bv26959946667150639794667015087019630673637144422540572481103610249215 256) x79) x180) (= (x389 x254) x93) (= (x61 x103) x352) (= (x61 x284) x144) (= x108 (x145 x233)) (bvuge x291 (_ bv1 256)) (= x216 (bvadd x290 (_ bv32 256))) (= x165 (= (x125 x103) x183)) x324 (bvule x358 (_ bv4294967295 256)) (= x204 (bvadd (_ bv36 256) x254)) (= x113 (x388 (_ bv64 256) x191 (_ bv103 256))) (bvuge x91 (_ bv1 256)) (= (bvule x108 (x125 x233)) x324) (= x254 (bvadd (_ bv64 256) x185)) (= (bvadd x204 (_ bv32 256)) x36) (= (bvadd x398 (_ bv64 256)) x185) (= (bvadd (bvneg (_ bv32 256)) x109) x114) (= (bvadd (bvneg x400) x291) x11) (= (x346 x96) x79) (= x96 (bvadd (_ bv32 256) x254)) (= (bvadd (bvneg x400) x367) x38) (bvuge x352 (_ bv1 256)) (= (bvadd x180 (bvneg (_ bv39341301877480157781710804024396230103289065588583741745104145964028735258624 256))) x403) (= (bvadd (_ bv4 256) x254) x252) (= (x52 x254) x118)) x40)))
(assert (= (x41 (x388 (_ bv64 256) x233 (_ bv103 256))) (_ bv64 256)))
(assert (= x101 (and x281 x295)))
(assert (bvult (_ bv10000 256) (x388 (_ bv64 256) x191 (_ bv103 256))))
(assert (x189 (_ bv9926590759366731133184464140911154174177107315504433282334229972011911741440 256)))
(assert (x189 (_ bv50942633119752846454219349998365661925608737367104304655302372697894809501696 256)))
(assert (= (and x405 x277) x2))
(assert (= x293 true))
(assert (= (x286 (_ bv91893037931264823478789666111544828899574148870504437229209701178949438013440 256)) (_ bv0 256)))
(assert (= (_ bv64 256) (x41 (x388 (_ bv64 256) x191 (_ bv103 256)))))
(assert (=> (bvule x62 (_ bv10000 256)) (= (_ bv0 256) (x286 x62))))
(assert (x189 (_ bv79296723274733526634128096404112061805888054070845613866591879340676341563392 256)))
(assert (=> (bvule x191 (_ bv10000 256)) (= (_ bv0 256) (x286 x191))))
(assert (=> (bvuge (_ bv10000 256) x193) (= (_ bv0 256) (x286 x193))))
(assert (= (x292 (x388 (_ bv64 256) x191 (_ bv103 256))) (_ bv103 256)))
(assert (= (x136 (x388 (_ bv64 256) x191 (_ bv104 256))) x191))
(assert (x189 (_ bv39341301877480157781710804024396230103289065588583741745104145964028735258624 256)))
(assert (=> (bvule x284 (_ bv10000 256)) (= (_ bv0 256) (x286 x284))))
(assert (= x45 (and x281 (not x295))))
(assert (=> (bvuge (_ bv10000 256) x276) (= (x286 x276) (_ bv0 256))))
(assert (bvult (_ bv10000 256) (x388 (_ bv64 256) x191 (_ bv104 256))))
(assert (= x99 (=> (and (or (and (and (x84 x338 x238) (= x274 x137) (= (bvmul x238 x338) x137)) (not x271)) (and (= x274 (_ bv0 256)) x271)) (and (= (= (_ bv0 256) x338) x271) (= x209 (_ bv1000000000000000000 256)))) x195)))
(assert (= (=> (and (or (and (not x150) (and (= x44 x116) (x84 x107 x408) (= (bvmul x107 x408) x116))) (and x150 (= (_ bv0 256) x44))) (and (= (bvadd x408 x238) x32) (= x34 (_ bv1000000000000000000 256)) (not (bvugt x408 (bvadd x408 x238))) (= x150 (= x107 (_ bv0 256))) (= (bvudiv x274 (_ bv1000000000000000000 256)) x408) (= (_ bv576 256) x397))) x273) x195))
(assert (x189 (_ bv1461501637330902918203684832716283019655932542975 256)))
(assert (= (_ bv0 256) (x286 (_ bv115792089237316195423570985008687907853269984665640564039457584007913129639935 256))))
(assert (bvult x353 (_ bv340282366920938463463374607431768211455 256)))
(assert (not (x189 (x388 (_ bv64 256) x233 (_ bv103 256)))))
(assert (x189 (_ bv1000000000000000000 256)))
(assert (= (x136 (x388 (_ bv64 256) x191 (_ bv103 256))) x191))
(assert (= (_ bv0 256) (x286 (_ bv1889567281 256))))
(assert (x189 (_ bv3877388257 256)))
(assert (= x121 (and x342 (not x328))))
(assert (x189 (_ bv340282366920938463463374607431768211455 256)))
(assert (= (x286 (x388 (_ bv64 256) x191 (_ bv104 256))) (x388 (_ bv64 256) x191 (_ bv104 256))))
(assert (= (and x303 x307) x82))
(assert (= (x286 (_ bv4294967295 256)) (_ bv0 256)))
(assert (not (x189 (x388 (_ bv64 256) x191 x390))))
(assert (x189 (_ bv26959946667150639794667015087019630673637144422540572481103610249215 256)))
(assert (x189 (_ bv1889567281 256)))
(assert (= (_ bv0 256) (x286 (_ bv26959946667150639794667015087019630673637144422540572481103610249215 256))))
(assert (= (x388 (_ bv64 256) x191 (_ bv103 256)) (x286 (x388 (_ bv64 256) x191 (_ bv103 256)))))
(assert (x189 (_ bv1000000000000000 256)))
(assert x268)
(assert (= x21 (and x407 (not x138))))
(assert (= x4 (and x270 x150)))
(assert (= x184 (=> (and (= x85 x159) (= x87 x74) (= x282 (_ bv704 256)) (= (_ bv768 256) x50) (not (bvugt x15 (bvadd x15 x133))) (= (bvadd x133 x15) x249) (= x15 (bvudiv x312 (_ bv1000000000000000000 256))) (= x357 x309) (= x159 (bvadd x408 x238)) (= x309 (bvadd x382 x250))) x334)))
(assert (= (_ bv0 256) (x286 (_ bv1000000000000000000 256))))
(assert (=> (bvule x103 (_ bv10000 256)) (= (_ bv0 256) (x286 x103))))
(assert (= (x41 (x388 (_ bv64 256) x191 x390)) (_ bv64 256)))
(assert (= x281 (or x316 x10)))
(assert (=> (bvuge (_ bv10000 256) x43) (= (_ bv0 256) (x286 x43))))
(assert (= (x41 (x388 (_ bv64 256) x191 (_ bv104 256))) (_ bv64 256)))
(assert (= x233 (x136 (x388 (_ bv64 256) x233 (_ bv103 256)))))
(assert (= x10 (and x293 x66)))
(assert (= (_ bv0 256) (x286 (_ bv50942633119752846454219349998365661925608737367104304655302372697894809501696 256))))
(assert (not (x189 (x388 (_ bv64 256) x191 (_ bv103 256)))))
(assert (= x407 (and (not x66) x293)))
(assert (=> (bvule x255 (_ bv10000 256)) (= (_ bv0 256) (x286 x255))))
(assert (= x273 (=> (and (and (= x97 (_ bv1000000000000000000 256)) (not (bvult (bvadd x250 x382) x382)) (= (bvadd x382 x250) x269) (= x187 (_ bv640 256)) (= (= (_ bv0 256) x338) x277) (= x382 (bvudiv x44 (_ bv1000000000000000000 256)))) (or (and x277 (= x312 (_ bv0 256))) (and (and (= x260 (bvmul x338 x133)) (x84 x338 x133) (= x312 x260)) (not x277)))) x184)))
(assert x68)
(assert (= (_ bv0 256) (x286 (_ bv9926590759366731133184464140911154174177107315504433282334229972011911741440 256))))
(assert (= (x286 (_ bv1000000000000000 256)) (_ bv0 256)))
(assert (= (or x4 x211) x405))
(assert (= (x292 (x388 (_ bv64 256) x191 (_ bv104 256))) (_ bv104 256)))
(assert (bvugt (_ bv340282366920938463463374607431768211455 256) x106))
(assert (= (and (not x271) x192) x301))
(assert (= (_ bv0 256) (x286 (_ bv39341301877480157781710804024396230103289065588583741745104145964028735258624 256))))
(assert (x189 (_ bv115792089237316195423570985008687907853269984665640564039457584007913129639935 256)))
(assert (= (or x234 x82) x288))
(assert (= x316 (or x182 x2)))
(assert (= (x286 (x388 (_ bv64 256) x233 (_ bv103 256))) (x388 (_ bv64 256) x233 (_ bv103 256))))
(assert (=> (bvule x339 (_ bv10000 256)) (= (_ bv0 256) (x286 x339))))
(assert (= (x292 (x388 (_ bv64 256) x191 x390)) x390))
(assert (= x111 (and x271 x192)))
(assert (= (x292 (x388 (_ bv64 256) x233 (_ bv103 256))) (_ bv103 256)))
(assert (=> (bvule x152 (_ bv10000 256)) (= (x286 x152) (_ bv0 256))))
(assert (bvult (_ bv10000 256) (x388 (_ bv64 256) x233 (_ bv103 256))))
(assert (=> (bvuge (_ bv10000 256) x244) (= (x286 x244) (_ bv0 256))))
(assert (x189 (_ bv57896044618658097711785492504343953926634992332820282019728792003956564819967 256)))
(assert (= (and x342 x328) x1))
(assert (= (_ bv0 256) (x286 (_ bv340282366920938463463374607431768211455 256))))
(assert (= x384 (and x407 x138)))
(assert (= (_ bv0 256) (x286 (_ bv3877388257 256))))
(check-sat)
(exit)
